p cnf 441 1259
a 1 2 3 4 5 6 7 8 9 10 11 12 13 16 17 18 19 20 21 22 23 24 25 26 27 28 29 30 31 32 33 34 35 36 37 38 39 40 41 42 43 44 45 46 47 48 49 50 53 54 55 56 57 58 61 64 65 66 67 68 69 70 71 72 73 74 0
e 14 15 51 52 59 60 62 63 75 76 77 78 79 80 81 82 83 84 85 86 87 88 89 90 91 92 93 94 95 96 97 98 99 100 101 102 103 104 105 106 107 108 109 110 111 112 113 114 115 116 117 118 119 120 121 122 123 124 125 126 127 128 129 130 131 132 133 134 135 136 137 138 139 140 141 142 143 144 145 146 147 148 149 150 151 152 153 154 155 156 157 158 159 160 161 162 163 164 165 166 167 168 169 170 171 172 173 174 175 176 177 178 179 180 181 182 183 184 185 186 187 188 189 190 191 192 193 194 195 196 197 198 199 200 201 202 203 204 205 206 207 208 209 210 211 212 213 214 215 216 217 218 219 220 221 222 223 224 225 226 227 228 229 230 231 232 233 234 235 236 237 238 239 240 241 242 243 244 245 246 247 248 249 250 251 252 253 254 255 256 257 258 259 260 261 262 263 264 265 266 267 268 269 270 271 272 273 274 275 276 277 278 279 280 281 282 283 284 285 286 287 288 289 290 291 292 293 294 295 296 297 298 299 300 301 302 303 304 305 306 307 308 309 310 311 312 313 314 315 316 317 318 319 320 321 322 323 324 325 326 327 328 329 330 331 332 333 334 335 336 337 338 339 340 341 342 343 344 345 346 347 348 349 350 351 352 353 354 355 356 357 358 359 360 361 362 363 364 365 366 367 368 369 370 371 372 373 374 375 376 377 378 379 380 381 382 383 384 385 386 387 388 389 390 391 392 393 394 395 396 397 398 399 400 401 402 403 404 405 406 407 408 409 410 411 412 413 414 415 416 417 418 419 420 421 422 423 424 425 426 427 428 429 430 431 432 433 434 435 436 437 438 439 440 441 0
-441 0
441 -257 0
441 -440 0
14 51 62 59 -439 -258 440 0
439 -291 0
439 -308 0
439 -325 0
439 -342 0
439 -359 0
439 -376 0
439 -393 0
439 -398 0
439 -403 0
439 -408 0
439 -413 0
439 -418 0
439 -423 0
439 -428 0
439 -433 0
439 -438 0
-290 -289 -288 -287 -437 438 0
437 -434 0
437 -435 0
437 -436 0
39 38 35 37 36 40 41 -282 -281 -390 -389 -388 -387 -280 -279 436 0
25 24 23 22 28 27 26 -275 -272 -271 -385 -384 -383 -382 -270 435 0
13 9 7 8 12 11 10 -264 -263 -262 -380 -379 -261 -378 -377 434 0
-290 -289 -288 -287 -432 433 0
432 -429 0
432 -430 0
432 -431 0
39 38 37 56 40 71 70 -322 -321 -390 -320 -389 -319 -388 -387 431 0
25 24 27 26 53 69 68 -317 -316 -315 -385 -384 -314 -383 -382 430 0
9 12 11 10 67 66 48 -312 -311 -310 -380 -379 -309 -378 -377 429 0
-290 -289 -288 -287 -427 428 0
427 -424 0
427 -425 0
427 -426 0
39 38 37 56 40 70 41 -305 -304 -303 -390 -389 -302 -388 -387 426 0
25 24 28 27 26 53 68 -300 -299 -298 -385 -384 -297 -383 -382 425 0
13 9 12 11 10 66 48 -295 -294 -293 -292 -380 -379 -378 -377 424 0
-290 -289 -288 -287 -422 423 0
422 -419 0
422 -420 0
422 -421 0
39 38 35 40 57 70 41 -322 -321 -373 -372 -320 -319 -371 -370 421 0
25 22 28 27 26 54 68 -317 -316 -368 -367 -366 -365 -315 -314 420 0
13 7 12 11 10 66 49 -312 -311 -363 -362 -361 -360 -310 -309 419 0
-290 -289 -288 -287 -417 418 0
417 -414 0
417 -415 0
417 -416 0
39 38 56 40 57 71 70 -305 -373 -372 -304 -303 -302 -371 -370 416 0
25 27 26 54 53 69 68 -300 -368 -367 -299 -298 -366 -365 -297 415 0
12 11 10 67 66 49 48 -295 -363 -362 -294 -293 -361 -360 -292 414 0
-290 -289 -288 -287 -412 413 0
412 -409 0
412 -410 0
412 -411 0
39 38 36 56 58 57 41 -373 -372 -282 -281 -280 -279 -371 -370 411 0
25 23 28 26 -275 54 53 55 -368 -367 -272 -271 -366 -365 -270 410 0
13 8 11 10 50 49 48 -363 -362 -264 -263 -262 -361 -360 -261 409 0
-290 -289 -288 -287 -407 408 0
407 -404 0
407 -405 0
407 -406 0
39 38 36 56 40 57 41 -356 -282 -281 -355 -280 -279 -354 -353 406 0
25 23 28 27 26 -275 54 53 -351 -272 -271 -350 -349 -270 -348 405 0
13 8 12 11 10 49 48 -346 -264 -263 -262 -345 -261 -344 -343 404 0
-290 -289 -288 -287 -402 403 0
402 -399 0
402 -400 0
402 -401 0
39 38 56 58 57 70 41 -322 -321 -356 -320 -319 -355 -354 -353 401 0
25 28 26 54 53 55 68 -317 -316 -351 -350 -315 -314 -349 -348 400 0
13 11 10 50 66 49 48 -312 -311 -346 -310 -309 -345 -344 -343 399 0
-290 -289 -288 -287 -397 398 0
397 -394 0
397 -395 0
397 -396 0
39 38 35 40 57 70 41 -305 -356 -304 -303 -355 -302 -354 -353 396 0
25 22 28 27 26 54 68 -300 -351 -299 -298 -350 -349 -297 -348 395 0
13 7 12 11 10 66 49 -295 -346 -294 -293 -292 -345 -344 -343 394 0
-290 -289 -288 -287 -392 393 0
392 -381 0
392 -386 0
392 -391 0
39 37 56 40 74 70 41 -339 -338 -390 -389 -337 -388 -387 -336 391 0
390 45 0
390 14 0
389 43 0
389 -14 0
388 47 0
388 15 0
387 44 0
387 -15 0
24 28 27 26 53 68 73 -334 -333 -385 -384 -332 -383 -382 -331 386 0
385 32 0
385 14 0
384 30 0
384 -14 0
383 34 0
383 15 0
382 31 0
382 -15 0
13 9 12 11 66 48 72 -329 -328 -380 -379 -327 -326 -378 -377 381 0
380 14 0
380 19 0
379 17 0
379 -14 0
378 18 0
378 -15 0
377 15 0
377 21 0
-290 -289 -288 -287 -375 376 0
375 -364 0
375 -369 0
375 -374 0
39 56 40 57 74 70 41 -339 -338 -373 -372 -337 -371 -370 -336 374 0
373 45 0
373 51 0
372 43 0
372 -51 0
371 47 0
371 52 0
370 44 0
370 -52 0
28 27 26 54 53 68 73 -334 -333 -368 -367 -366 -365 -332 -331 369 0
368 51 0
368 32 0
367 -51 0
367 30 0
366 -52 0
366 31 0
365 52 0
365 34 0
13 12 11 66 49 48 72 -329 -328 -363 -362 -361 -360 -327 -326 364 0
363 51 0
363 19 0
362 -51 0
362 17 0
361 52 0
361 21 0
360 -52 0
360 18 0
-290 -289 -288 -287 -358 359 0
358 -347 0
358 -352 0
358 -357 0
39 56 40 57 74 71 70 -356 -339 -338 -355 -337 -354 -353 -336 357 0
356 44 0
356 -60 0
355 59 0
355 45 0
354 47 0
354 60 0
353 43 0
353 -59 0
27 26 54 53 69 68 73 -351 -334 -333 -350 -349 -332 -348 -331 352 0
351 -60 0
351 31 0
350 -59 0
350 30 0
349 59 0
349 32 0
348 60 0
348 34 0
12 11 67 66 49 48 72 -346 -329 -328 -345 -327 -326 -344 -343 347 0
346 -60 0
346 18 0
345 59 0
345 19 0
344 60 0
344 21 0
343 -59 0
343 17 0
-290 -289 -288 -287 -341 342 0
341 -330 0
341 -335 0
341 -340 0
35 40 65 57 74 70 41 -339 -338 -284 -283 -337 -336 -278 -277 340 0
339 62 0
339 6 0
338 -62 0
338 3 0
337 42 0
337 -63 0
336 63 0
336 46 0
22 28 27 54 68 64 73 -334 -333 -274 -273 -332 -331 -269 -268 335 0
334 62 0
334 4 0
333 -62 0
333 2 0
332 -63 0
332 29 0
331 63 0
331 33 0
13 7 12 61 66 49 72 -329 -328 -266 -265 -327 -326 -260 -259 330 0
329 62 0
329 5 0
328 -62 0
328 1 0
327 -63 0
327 16 0
326 63 0
326 20 0
-290 -289 -288 -287 -324 325 0
324 -313 0
324 -318 0
324 -323 0
38 56 40 65 57 70 41 -322 -321 -284 -283 -320 -319 -278 -277 323 0
322 51 0
322 6 0
321 -51 0
321 3 0
320 46 0
320 52 0
319 42 0
319 -52 0
25 28 27 54 53 68 64 -317 -316 -274 -273 -315 -314 -269 -268 318 0
317 51 0
317 4 0
316 -51 0
316 2 0
315 52 0
315 33 0
314 -52 0
314 29 0
13 12 10 61 66 49 48 -312 -311 -266 -265 -310 -309 -260 -259 313 0
312 51 0
312 5 0
311 -51 0
311 1 0
310 52 0
310 20 0
309 -52 0
309 16 0
-290 -289 -288 -287 -307 308 0
307 -296 0
307 -301 0
307 -306 0
38 56 65 58 57 70 41 -305 -284 -283 -304 -303 -302 -278 -277 306 0
305 60 0
305 46 0
304 -59 0
304 3 0
303 59 0
303 6 0
302 42 0
302 -60 0
25 28 54 53 55 68 64 -300 -274 -273 -299 -298 -297 -269 -268 301 0
300 60 0
300 33 0
299 -59 0
299 2 0
298 59 0
298 4 0
297 -60 0
297 29 0
13 10 61 50 66 49 48 -295 -266 -265 -294 -293 -292 -260 -259 296 0
295 60 0
295 20 0
294 59 0
294 5 0
293 -59 0
293 1 0
292 -60 0
292 16 0
-290 -289 -288 -287 -286 291 0
290 5 0
290 -4 0
289 4 0
289 -6 0
288 3 0
288 -2 0
287 2 0
287 -1 0
286 -267 0
286 -276 0
286 -285 0
38 36 56 40 65 57 41 -284 -283 -282 -281 -280 -279 -278 -277 285 0
284 62 0
284 45 0
283 43 0
283 -62 0
282 14 0
282 6 0
281 3 0
281 -14 0
280 46 0
280 15 0
279 42 0
279 -15 0
278 47 0
278 63 0
277 44 0
277 -63 0
25 23 28 27 -275 54 53 64 -274 -273 -272 -271 -270 -269 -268 276 0
275 33 0
275 15 0
274 62 0
274 32 0
273 -62 0
273 30 0
272 14 0
272 4 0
271 2 0
271 -14 0
270 29 0
270 -15 0
269 63 0
269 34 0
268 -63 0
268 31 0
13 8 12 10 61 49 48 -266 -265 -264 -263 -262 -261 -260 -259 267 0
266 62 0
266 19 0
265 -62 0
265 17 0
264 16 0
264 -15 0
263 14 0
263 5 0
262 1 0
262 -14 0
261 15 0
261 20 0
260 63 0
260 21 0
259 -63 0
259 18 0
258 60 0
258 63 0
258 52 0
258 15 0
-256 -251 -246 -241 -236 -231 -226 -221 -216 -211 -194 -177 -160 -143 -126 -109 -76 257 0
256 -255 0
256 -105 0
256 -106 0
256 -107 0
256 -108 0
-254 -253 -252 255 0
254 -97 0
254 -98 0
254 -205 0
254 -206 0
254 -207 0
254 -208 0
254 -99 0
254 -100 0
254 -41 0
254 -40 0
254 -39 0
254 -38 0
254 -37 0
254 -36 0
254 -35 0
253 -88 0
253 -200 0
253 -201 0
253 -202 0
253 -203 0
253 -89 0
253 -90 0
253 -93 0
253 -28 0
253 -27 0
253 -26 0
253 -25 0
253 -24 0
253 -23 0
253 -22 0
252 -195 0
252 -196 0
252 -79 0
252 -197 0
252 -198 0
252 -80 0
252 -81 0
252 -82 0
252 -13 0
252 -12 0
252 -11 0
252 -10 0
252 -9 0
252 -8 0
252 -7 0
251 -250 0
251 -105 0
251 -106 0
251 -107 0
251 -108 0
-249 -248 -247 250 0
249 -205 0
249 -206 0
249 -137 0
249 -207 0
249 -138 0
249 -208 0
249 -139 0
249 -140 0
249 -71 0
249 -70 0
249 -56 0
249 -40 0
249 -39 0
249 -38 0
249 -37 0
248 -200 0
248 -201 0
248 -132 0
248 -202 0
248 -203 0
248 -133 0
248 -134 0
248 -135 0
248 -69 0
248 -68 0
248 -53 0
248 -27 0
248 -26 0
248 -25 0
248 -24 0
247 -195 0
247 -196 0
247 -127 0
247 -197 0
247 -198 0
247 -128 0
247 -129 0
247 -130 0
247 -67 0
247 -66 0
247 -48 0
247 -12 0
247 -11 0
247 -10 0
247 -9 0
246 -245 0
246 -105 0
246 -106 0
246 -107 0
246 -108 0
-244 -243 -242 245 0
244 -205 0
244 -206 0
244 -120 0
244 -207 0
244 -208 0
244 -121 0
244 -122 0
244 -123 0
244 -70 0
244 -56 0
244 -41 0
244 -40 0
244 -39 0
244 -38 0
244 -37 0
243 -200 0
243 -201 0
243 -115 0
243 -202 0
243 -203 0
243 -116 0
243 -117 0
243 -118 0
243 -68 0
243 -53 0
243 -28 0
243 -27 0
243 -26 0
243 -25 0
243 -24 0
242 -195 0
242 -196 0
242 -197 0
242 -198 0
242 -110 0
242 -111 0
242 -112 0
242 -113 0
242 -66 0
242 -48 0
242 -13 0
242 -12 0
242 -11 0
242 -10 0
242 -9 0
241 -240 0
241 -105 0
241 -106 0
241 -107 0
241 -108 0
-239 -238 -237 240 0
239 -188 0
239 -189 0
239 -137 0
239 -138 0
239 -190 0
239 -191 0
239 -139 0
239 -140 0
239 -70 0
239 -57 0
239 -41 0
239 -40 0
239 -39 0
239 -38 0
239 -35 0
238 -132 0
238 -133 0
238 -183 0
238 -184 0
238 -185 0
238 -186 0
238 -134 0
238 -135 0
238 -68 0
238 -54 0
238 -28 0
238 -27 0
238 -26 0
238 -25 0
238 -22 0
237 -127 0
237 -128 0
237 -178 0
237 -179 0
237 -180 0
237 -181 0
237 -129 0
237 -130 0
237 -66 0
237 -49 0
237 -13 0
237 -12 0
237 -11 0
237 -10 0
237 -7 0
236 -235 0
236 -105 0
236 -106 0
236 -107 0
236 -108 0
-234 -233 -232 235 0
234 -188 0
234 -189 0
234 -120 0
234 -121 0
234 -122 0
234 -190 0
234 -191 0
234 -123 0
234 -71 0
234 -70 0
234 -57 0
234 -56 0
234 -40 0
234 -39 0
234 -38 0
233 -115 0
233 -183 0
233 -184 0
233 -116 0
233 -117 0
233 -185 0
233 -186 0
233 -118 0
233 -69 0
233 -68 0
233 -54 0
233 -53 0
233 -27 0
233 -26 0
233 -25 0
232 -110 0
232 -178 0
232 -179 0
232 -111 0
232 -112 0
232 -180 0
232 -181 0
232 -113 0
232 -67 0
232 -66 0
232 -49 0
232 -48 0
232 -12 0
232 -11 0
232 -10 0
231 -230 0
231 -105 0
231 -106 0
231 -107 0
231 -108 0
-229 -228 -227 230 0
229 -188 0
229 -189 0
229 -97 0
229 -98 0
229 -99 0
229 -100 0
229 -190 0
229 -191 0
229 -58 0
229 -57 0
229 -56 0
229 -41 0
229 -39 0
229 -38 0
229 -36 0
228 -88 0
228 -183 0
228 -184 0
228 -89 0
228 -90 0
228 -185 0
228 -186 0
228 -55 0
228 -54 0
228 -53 0
228 -93 0
228 -28 0
228 -26 0
228 -25 0
228 -23 0
227 -79 0
227 -178 0
227 -179 0
227 -80 0
227 -81 0
227 -82 0
227 -180 0
227 -181 0
227 -50 0
227 -49 0
227 -48 0
227 -13 0
227 -11 0
227 -10 0
227 -8 0
226 -225 0
226 -105 0
226 -106 0
226 -107 0
226 -108 0
-224 -223 -222 225 0
224 -171 0
224 -172 0
224 -97 0
224 -98 0
224 -173 0
224 -99 0
224 -100 0
224 -174 0
224 -57 0
224 -56 0
224 -41 0
224 -40 0
224 -39 0
224 -38 0
224 -36 0
223 -166 0
223 -88 0
223 -167 0
223 -168 0
223 -89 0
223 -90 0
223 -169 0
223 -54 0
223 -53 0
223 -93 0
223 -28 0
223 -27 0
223 -26 0
223 -25 0
223 -23 0
222 -161 0
222 -162 0
222 -79 0
222 -163 0
222 -80 0
222 -81 0
222 -82 0
222 -164 0
222 -49 0
222 -48 0
222 -13 0
222 -12 0
222 -11 0
222 -10 0
222 -8 0
221 -220 0
221 -105 0
221 -106 0
221 -107 0
221 -108 0
-219 -218 -217 220 0
219 -171 0
219 -172 0
219 -173 0
219 -137 0
219 -138 0
219 -174 0
219 -139 0
219 -140 0
219 -70 0
219 -58 0
219 -57 0
219 -56 0
219 -41 0
219 -39 0
219 -38 0
218 -166 0
218 -167 0
218 -132 0
218 -133 0
218 -168 0
218 -169 0
218 -134 0
218 -135 0
218 -68 0
218 -55 0
218 -54 0
218 -53 0
218 -28 0
218 -26 0
218 -25 0
217 -161 0
217 -162 0
217 -163 0
217 -127 0
217 -128 0
217 -164 0
217 -129 0
217 -130 0
217 -66 0
217 -50 0
217 -49 0
217 -48 0
217 -13 0
217 -11 0
217 -10 0
216 -215 0
216 -105 0
216 -106 0
216 -107 0
216 -108 0
-214 -213 -212 215 0
214 -171 0
214 -172 0
214 -120 0
214 -173 0
214 -121 0
214 -122 0
214 -174 0
214 -123 0
214 -70 0
214 -57 0
214 -41 0
214 -40 0
214 -39 0
214 -38 0
214 -35 0
213 -166 0
213 -115 0
213 -167 0
213 -168 0
213 -116 0
213 -117 0
213 -169 0
213 -118 0
213 -68 0
213 -54 0
213 -28 0
213 -27 0
213 -26 0
213 -25 0
213 -22 0
212 -161 0
212 -162 0
212 -163 0
212 -110 0
212 -111 0
212 -112 0
212 -164 0
212 -113 0
212 -66 0
212 -49 0
212 -13 0
212 -12 0
212 -11 0
212 -10 0
212 -7 0
211 -210 0
211 -105 0
211 -106 0
211 -107 0
211 -108 0
-209 -204 -199 210 0
209 -154 0
209 -205 0
209 -206 0
209 -155 0
209 -207 0
209 -208 0
209 -156 0
209 -157 0
209 -74 0
209 -70 0
209 -56 0
209 -41 0
209 -40 0
209 -39 0
209 -37 0
-14 -45 208 0
14 -43 207 0
-15 -47 206 0
15 -44 205 0
204 -149 0
204 -200 0
204 -201 0
204 -150 0
204 -202 0
204 -203 0
204 -151 0
204 -152 0
204 -73 0
204 -68 0
204 -53 0
204 -28 0
204 -27 0
204 -26 0
204 -24 0
-14 -32 203 0
-30 14 202 0
-15 -34 201 0
-31 15 200 0
199 -195 0
199 -196 0
199 -144 0
199 -145 0
199 -197 0
199 -198 0
199 -146 0
199 -147 0
199 -72 0
199 -66 0
199 -48 0
199 -13 0
199 -12 0
199 -11 0
199 -9 0
-14 -19 198 0
-17 14 197 0
-18 15 196 0
-15 -21 195 0
194 -193 0
194 -105 0
194 -106 0
194 -107 0
194 -108 0
-192 -187 -182 193 0
192 -154 0
192 -188 0
192 -189 0
192 -155 0
192 -190 0
192 -191 0
192 -156 0
192 -157 0
192 -74 0
192 -70 0
192 -57 0
192 -56 0
192 -41 0
192 -40 0
192 -39 0
-45 -51 191 0
-43 51 190 0
-47 -52 189 0
-44 52 188 0
187 -149 0
187 -150 0
187 -183 0
187 -184 0
187 -185 0
187 -186 0
187 -151 0
187 -152 0
187 -73 0
187 -68 0
187 -54 0
187 -53 0
187 -28 0
187 -27 0
187 -26 0
-32 -51 186 0
-30 51 185 0
-31 52 184 0
-34 -52 183 0
182 -144 0
182 -145 0
182 -178 0
182 -179 0
182 -180 0
182 -181 0
182 -146 0
182 -147 0
182 -72 0
182 -66 0
182 -49 0
182 -48 0
182 -13 0
182 -12 0
182 -11 0
-19 -51 181 0
-17 51 180 0
-18 52 179 0
-21 -52 178 0
177 -176 0
177 -105 0
177 -106 0
177 -107 0
177 -108 0
-175 -170 -165 176 0
175 -154 0
175 -171 0
175 -172 0
175 -155 0
175 -173 0
175 -156 0
175 -157 0
175 -174 0
175 -74 0
175 -71 0
175 -70 0
175 -57 0
175 -56 0
175 -40 0
175 -39 0
-44 60 174 0
-45 -59 173 0
-47 -60 172 0
-43 59 171 0
170 -149 0
170 -166 0
170 -150 0
170 -167 0
170 -168 0
170 -151 0
170 -152 0
170 -169 0
170 -73 0
170 -69 0
170 -68 0
170 -54 0
170 -53 0
170 -27 0
170 -26 0
-31 60 169 0
-30 59 168 0
-32 -59 167 0
-34 -60 166 0
165 -161 0
165 -162 0
165 -144 0
165 -145 0
165 -163 0
165 -146 0
165 -147 0
165 -164 0
165 -72 0
165 -67 0
165 -66 0
165 -49 0
165 -48 0
165 -12 0
165 -11 0
-18 60 164 0
-19 -59 163 0
-21 -60 162 0
-17 59 161 0
160 -159 0
160 -105 0
160 -106 0
160 -107 0
160 -108 0
-158 -153 -148 159 0
158 -95 0
158 -96 0
158 -154 0
158 -155 0
158 -101 0
158 -102 0
158 -156 0
158 -157 0
158 -74 0
158 -70 0
158 -65 0
158 -57 0
158 -41 0
158 -40 0
158 -35 0
-6 -62 157 0
-3 62 156 0
-42 63 155 0
-46 -63 154 0
153 -86 0
153 -87 0
153 -149 0
153 -150 0
153 -91 0
153 -92 0
153 -151 0
153 -152 0
153 -73 0
153 -68 0
153 -64 0
153 -54 0
153 -28 0
153 -27 0
153 -22 0
-4 -62 152 0
-2 62 151 0
-29 63 150 0
-33 -63 149 0
148 -77 0
148 -78 0
148 -144 0
148 -145 0
148 -83 0
148 -84 0
148 -146 0
148 -147 0
148 -72 0
148 -66 0
148 -61 0
148 -49 0
148 -13 0
148 -12 0
148 -7 0
-5 -62 147 0
-1 62 146 0
-16 63 145 0
-20 -63 144 0
143 -142 0
143 -105 0
143 -106 0
143 -107 0
143 -108 0
-141 -136 -131 142 0
141 -95 0
141 -96 0
141 -137 0
141 -138 0
141 -101 0
141 -102 0
141 -139 0
141 -140 0
141 -70 0
141 -65 0
141 -57 0
141 -56 0
141 -41 0
141 -40 0
141 -38 0
-6 -51 140 0
-3 51 139 0
-46 -52 138 0
-42 52 137 0
136 -86 0
136 -87 0
136 -132 0
136 -133 0
136 -91 0
136 -92 0
136 -134 0
136 -135 0
136 -68 0
136 -64 0
136 -54 0
136 -53 0
136 -28 0
136 -27 0
136 -25 0
-4 -51 135 0
-2 51 134 0
-33 -52 133 0
-29 52 132 0
131 -77 0
131 -78 0
131 -127 0
131 -128 0
131 -83 0
131 -84 0
131 -129 0
131 -130 0
131 -66 0
131 -61 0
131 -49 0
131 -48 0
131 -13 0
131 -12 0
131 -10 0
-5 -51 130 0
-1 51 129 0
-20 -52 128 0
-16 52 127 0
126 -125 0
126 -105 0
126 -106 0
126 -107 0
126 -108 0
-124 -119 -114 125 0
124 -95 0
124 -96 0
124 -120 0
124 -121 0
124 -122 0
124 -101 0
124 -102 0
124 -123 0
124 -70 0
124 -65 0
124 -58 0
124 -57 0
124 -56 0
124 -41 0
124 -38 0
-46 -60 123 0
-3 59 122 0
-6 -59 121 0
-42 60 120 0
119 -86 0
119 -87 0
119 -115 0
119 -116 0
119 -117 0
119 -91 0
119 -92 0
119 -118 0
119 -68 0
119 -64 0
119 -55 0
119 -54 0
119 -53 0
119 -28 0
119 -25 0
-33 -60 118 0
-2 59 117 0
-4 -59 116 0
-29 60 115 0
114 -77 0
114 -78 0
114 -110 0
114 -111 0
114 -112 0
114 -83 0
114 -84 0
114 -113 0
114 -66 0
114 -61 0
114 -50 0
114 -49 0
114 -48 0
114 -13 0
114 -10 0
-20 -60 113 0
-5 -59 112 0
-1 59 111 0
-16 60 110 0
109 -104 0
109 -105 0
109 -106 0
109 -107 0
109 -108 0
-5 4 108 0
-4 6 107 0
-3 2 106 0
-2 1 105 0
-103 -94 -85 104 0
103 -95 0
103 -96 0
103 -97 0
103 -98 0
103 -99 0
103 -100 0
103 -101 0
103 -102 0
103 -65 0
103 -57 0
103 -56 0
103 -41 0
103 -40 0
103 -38 0
103 -36 0
-45 -62 102 0
-43 62 101 0
-3 14 100 0
-6 -14 99 0
-15 -46 98 0
15 -42 97 0
-47 -63 96 0
-44 63 95 0
94 -86 0
94 -87 0
94 -88 0
94 -89 0
94 -90 0
94 -91 0
94 -92 0
94 -64 0
94 -54 0
94 -53 0
94 -93 0
94 -28 0
94 -27 0
94 -25 0
94 -23 0
-15 -33 93 0
-32 -62 92 0
-30 62 91 0
-2 14 90 0
-4 -14 89 0
-29 15 88 0
-34 -63 87 0
-31 63 86 0
85 -77 0
85 -78 0
85 -79 0
85 -80 0
85 -81 0
85 -82 0
85 -83 0
85 -84 0
85 -61 0
85 -49 0
85 -48 0
85 -13 0
85 -12 0
85 -10 0
85 -8 0
-19 -62 84 0
-17 62 83 0
-16 15 82 0
-1 14 81 0
-5 -14 80 0
-15 -20 79 0
-21 -63 78 0
-18 63 77 0
76 -75 0
76 -62 0
76 -59 0
76 -51 0
76 -14 0
-15 -52 -60 -63 75 0
